
 wagons = {1, 2};
 
points = {1, 2, 3, 4};
 
 
 startPointStartDateWagon = [ 0, 1];
 pointOfStart = [3, 4];
 
 shippmentStartDate = [ 5, 6, 14, 11];
 shippmentDuration = [ 1, 12, 10, 1]; 
 shippmentEndDate = [6, 18, 24, 12];
 

 
 emptyTrainDistanceMatrix = {
 <1,1,0>,<1,2,10>, <1,3, 6>, <1,4, 19>,
 <2,1,8>,<2,2,0>, <2,3,15>,<2,4,2>,
 <3,1,4>,<3,2,18>,<3,3,0>,<3,4,6>,
  <4,1,17>,<4,2,5>,<4,3,3>,<4,4,0>
 };